letting initialStacks = [34, 18, 27, 37, 41, 12, 22, 23, 25, 48, 17, 44, 9, 32, 29, 26, 20, 21, 7, 11, 43, 50, 36, 24, 8, 16, 3, 31, 14, 47, 30, 1, 40, 45, 42, 28, 35, 5, 6, 33, 51, 49, 13, 2, 4, 39, 19, 10, 15, 38, 46]
